109	22	4	61	
16	15	15	15

0	0	0	0	0	0	4	1	2	3	4
1	6	6	8	1	7	2	9	18
2	7	5	7	4	8	1	12
3	10	4	2	3	1	1	7
4	9	2	6	3	4	1	5
5	5	10	8	1	5	2	6	16
6	7	2	2	4	6	1	10
7	7	7	8	4	5	1	8
8	5	7	7	8	10	1	11
9	4	8	6	10	2	1	15
10	7	5	2	8	9	1	14
11	9	10	7	9	1	2	17	19
12	5	6	1	8	4	1	13
13	6	1	1	8	10	1	16
14	6	5	9	10	8	1	18
15	10	6	6	2	4	1	20
16	6	2	4	6	2	1	17
17	8	3	3	10	6	1	21
18	3	1	4	5	8	1	21
19	8	2	3	5	3	1	21
20	10	10	9	3	6	1	21
21	0	0	0	0	0	0
